0 3294
5 3282
10 3237
11 3227
15 3194
16 3192
19 3129
26 3101
29 3072
30 2999
34 2955
40 2940
48 2938
51 2924
52 2909
53 2872
56 2857
58 2854
59 2852
62 2840
338 2820
536 2807
553 2779
577 2775
1637 2765
2417 2763
2422 2752
3180 2747
3184 2746
3619 2744
3647 2737
3948 2735
4823 2730
6204 2726
6335 2724
